c A SAT instance generated from a 3-CNF formula that had 45 clauses and 15 variables
p cnf 15 45
-15 11 4 0
-14 15 9 0
5 7 10 0
-15 -4 7 0
14 -3 1 0
9 -4 -2 0
-3 4 13 0
12 -2 6 0
-8 -11 4 0
-9 7 -1 0
-13 9 6 0
-3 -14 -1 0
-9 -1 5 0
-7 4 9 0
-9 -3 -12 0
5 -10 14 0
6 -13 11 0
-13 -1 11 0
14 12 6 0
-12 11 -9 0
-9 7 12 0
2 11 -1 0
-7 12 6 0
-10 -3 -1 0
4 -2 -14 0
-11 -2 7 0
3 -6 -7 0
5 6 -14 0
8 -11 -13 0
-4 -10 -15 0
13 -10 -11 0
-8 -11 -12 0
12 -9 -4 0
-14 -8 10 0
14 5 15 0
9 -11 -13 0
12 13 -10 0
-8 -2 -11 0
-1 -8 4 0
-6 11 -12 0
-14 9 8 0
4 2 9 0
2 6 -3 0
8 5 11 0
-14 -10 2 0
